Set parameter TokenServer to value "hpc-licenses.hpcc.usc.edu"
Set parameter TimeLimit to value 3600
Gurobi Optimizer version 9.5.1 build v9.5.1rc2 (linux64)
Thread count: 20 physical cores, 20 logical processors, using up to 20 threads
Optimize a model with 14014 rows, 10581 columns and 61098 nonzeros
Model fingerprint: 0xf0f87ed4
Variable types: 10514 continuous, 67 integer (67 binary)
Coefficient statistics:
  Matrix range     [1e+00, 1e+00]
  Objective range  [4e-03, 1e+00]
  Bounds range     [1e+00, 1e+00]
  RHS range        [1e+00, 1e+00]
Presolve removed 3062 rows and 3049 columns
Presolve time: 0.30s
Presolved: 10952 rows, 7532 columns, 56363 nonzeros
Variable types: 7472 continuous, 60 integer (60 binary)
Found heuristic solution: objective 296.7000013

Root relaxation: objective 3.013009e+02, 3065 iterations, 0.12 seconds (0.21 work units)

    Nodes    |    Current Node    |     Objective Bounds      |     Work
 Expl Unexpl |  Obj  Depth IntInf | Incumbent    BestBd   Gap | It/Node Time

     0     0  301.30086    0    6  296.70000  301.30086  1.55%     -    0s
     0     0  301.30086    0    8  296.70000  301.30086  1.55%     -    0s
H    0     0                     300.1316072  301.30086  0.39%     -    0s
     0     0  301.30086    0    8  300.13161  301.30086  0.39%     -    1s
     0     0  301.30086    0    7  300.13161  301.30086  0.39%     -    1s
     0     0  301.30086    0    7  300.13161  301.30086  0.39%     -    1s
     0     0  301.23527    0    7  300.13161  301.23527  0.37%     -    1s
     0     0  301.23496    0    6  300.13161  301.23496  0.37%     -    1s
     0     0  301.16770    0    6  300.13161  301.16770  0.35%     -    1s
     0     2  301.16770    0    6  300.13161  301.16770  0.35%     -    2s
    59    24  301.07682    8    8  300.13161  301.08202  0.32%   377    5s
*   86    26               9     300.2190559  301.07573  0.29%   315    5s
*  271    10              16     300.2799072  300.67874  0.13%   216    8s

Cutting planes:
  Gomory: 3
  MIR: 7
  RLT: 4

Explored 308 nodes (64482 simplex iterations) in 8.48 seconds (2.65 work units)
Thread count was 20 (of 20 available processors)

Solution count 4: 300.28 300.219 300.132 296.7 

Optimal solution found (tolerance 1.00e-04)
Best objective 3.002799071642e+02, best bound 3.002799071642e+02, gap 0.0000%



#########node  1
V2.3
#########node  2
V1.8
#########node  3
V1.7
#########node  4
0.0,1.0
#########node  5
1.0,0.0
#########node  6
0.0,1.0
#########node  7
1.0,0.0


Total Solving Time 9.30354905128479
obj value 300.27990716419384
Policy Regret train (Sum) 0.5435978813790916
Best Treatment Found train (%) 90.0
treatment classification acc train (%) 46.400000000000006
Policy Regret test (Sum) 93.38328478298259
Best Treatment Found test (%) 65.48
treatment classification acc test (%) 50.12
Set parameter TokenServer to value "hpc-licenses.hpcc.usc.edu"
Set parameter TimeLimit to value 3600
Gurobi Optimizer version 9.5.1 build v9.5.1rc2 (linux64)
Thread count: 20 physical cores, 20 logical processors, using up to 20 threads
Optimize a model with 14014 rows, 10581 columns and 61098 nonzeros
Model fingerprint: 0xf0f87ed4
Variable types: 10514 continuous, 67 integer (67 binary)
Coefficient statistics:
  Matrix range     [1e+00, 1e+00]
  Objective range  [4e-03, 1e+00]
  Bounds range     [1e+00, 1e+00]
  RHS range        [1e+00, 1e+00]
Presolve removed 3062 rows and 3049 columns
Presolve time: 0.22s
Presolved: 10952 rows, 7532 columns, 56363 nonzeros
Variable types: 7472 continuous, 60 integer (60 binary)
Found heuristic solution: objective 296.7000013

Root relaxation: objective 3.013009e+02, 3065 iterations, 0.14 seconds (0.21 work units)

    Nodes    |    Current Node    |     Objective Bounds      |     Work
 Expl Unexpl |  Obj  Depth IntInf | Incumbent    BestBd   Gap | It/Node Time

     0     0  301.30086    0    6  296.70000  301.30086  1.55%     -    0s
     0     0  301.30086    0    8  296.70000  301.30086  1.55%     -    0s
H    0     0                     300.1316072  301.30086  0.39%     -    0s
     0     0  301.30086    0    8  300.13161  301.30086  0.39%     -    0s
     0     0  301.30086    0    7  300.13161  301.30086  0.39%     -    1s
     0     0  301.30086    0    7  300.13161  301.30086  0.39%     -    1s
     0     0  301.23527    0    7  300.13161  301.23527  0.37%     -    1s
     0     0  301.23496    0    6  300.13161  301.23496  0.37%     -    1s
     0     0  301.16770    0    6  300.13161  301.16770  0.35%     -    1s
     0     2  301.16770    0    6  300.13161  301.16770  0.35%     -    1s
    79    26  301.03358    9   10  300.13161  301.07573  0.31%   333    5s
*   86    26               9     300.2190559  301.07573  0.29%   315    5s
*  271    10              16     300.2799072  300.67874  0.13%   216    8s

Cutting planes:
  Gomory: 3
  MIR: 7
  RLT: 4

Explored 308 nodes (64482 simplex iterations) in 9.07 seconds (2.65 work units)
Thread count was 20 (of 20 available processors)

Solution count 4: 300.28 300.219 300.132 296.7 

Optimal solution found (tolerance 1.00e-04)
Best objective 3.002799071642e+02, best bound 3.002799071642e+02, gap 0.0000%



#########node  1
V2.3
#########node  2
V1.8
#########node  3
V1.7
#########node  4
0.0,1.0
#########node  5
1.0,0.0
#########node  6
0.0,1.0
#########node  7
1.0,0.0


Total Solving Time 9.966976165771484
obj value 300.27990716419384
Policy Regret train (Sum) 0.5435978813790916
Best Treatment Found train (%) 90.0
treatment classification acc train (%) 46.400000000000006
Policy Regret test (Sum) 93.38328478298259
Best Treatment Found test (%) 65.48
treatment classification acc test (%) 50.12
